(set-logic QF_S)
(declare-fun _var_0xINPUT_102002_() String)
(declare-fun __woorpje_diseq_pref0_() String)
(declare-fun __woorpje_diseq_suf_l0_() String)
(declare-fun __woorpje_diseq_suf_r0_() String)
(assert (=(str.++  "bLBKTGbnvu" "")(str.++ _var_0xINPUT_102002_  "")) )
(check-sat)
